c User generated cnf file
p cnf 8 48
4 -2 1 0 
8 8 -5 0 
5 6 -1 0 
-5 5 5 0 
7 -3 4 0 
-7 3 3 0 
5 -1 3 0 
-5 2 2 0 
5 -5 2 0 
5 3 -8 0 
2 -8 5 0 
8 -8 1 0 
6 6 -6 0 
-5 6 7 0 
5 -1 1 0 
-1 3 7 0 
1 -5 6 0 
4 -2 5 0 
3 6 -1 0 
1 -7 1 0 
5 -3 1 0 
3 1 -3 0 
8 3 -5 0 
3 -5 8 0 
2 -3 3 0 
5 -1 7 0 
3 -8 2 0 
8 -8 3 0 
8 4 -3 0 
2 -7 1 0 
2 3 -6 0 
8 -5 6 0 
-6 6 7 0 
6 3 -2 0 
2 7 -6 0 
5 3 -6 0 
-5 8 2 0 
8 8 -6 0 
5 -2 6 0 
1 2 -7 0 
6 -4 4 0 
1 -3 8 0 
3 3 -2 0 
2 4 -1 0 
5 -8 4 0 
-6 7 5 0 
4 4 -2 0 
4 -7 4 0 
